p cnf 1096 2778
-1 -2 0
1 2 0
-3 -4 0
3 4 0
-5 -6 0
5 6 0
-7 -8 0
7 8 0
-9 -10 0
9 10 0
-11 -12 0
11 12 0
-13 -14 0
13 14 0
-15 -16 0
15 16 0
-17 -18 0
17 18 0
-19 -20 0
19 20 0
-21 -22 0
21 22 0
11 -23 0
2 -23 0
-11 -2 23 0
8 -24 0
9 -24 0
-8 -9 24 0
12 -25 0
1 -25 0
-12 -1 25 0
7 -26 0
10 -26 0
-7 -10 26 0
5 -27 0
28 -27 0
-5 -28 27 0
-29 -26 0
29 26 0
-30 -24 0
30 24 0
-31 -25 0
31 25 0
-32 -23 0
32 23 0
31 -33 0
32 -33 0
-31 -32 33 0
30 -34 0
29 -34 0
-30 -29 34 0
29 -35 0
30 -35 0
-29 -30 35 0
35 -36 0
23 -36 0
-35 -23 36 0
27 -37 0
34 -37 0
-27 -34 37 0
37 -38 0
33 -38 0
-37 -33 38 0
-39 -36 0
39 36 0
-40 -38 0
40 38 0
29 -41 0
39 -41 0
-29 -39 41 0
40 -42 0
41 -42 0
-40 -41 42 0
42 -43 0
10 -43 0
-42 -10 43 0
42 -44 0
8 -44 0
-42 -8 44 0
-45 -42 0
45 42 0
28 -46 0
42 -46 0
-28 -42 46 0
6 -47 0
42 -47 0
-6 -42 47 0
42 -48 0
2 -48 0
-42 -2 48 0
12 -49 0
42 -49 0
-12 -42 49 0
-50 -44 0
50 44 0
-51 -47 0
51 47 0
-52 -48 0
52 48 0
-53 -46 0
53 46 0
-54 -49 0
54 49 0
-55 -43 0
55 43 0
45 -56 0
2 -56 0
-45 -2 56 0
28 -57 0
45 -57 0
-28 -45 57 0
45 -58 0
8 -58 0
-45 -8 58 0
6 -59 0
45 -59 0
-6 -45 59 0
45 -60 0
10 -60 0
-45 -10 60 0
12 -61 0
45 -61 0
-12 -45 61 0
-62 -58 0
62 58 0
-63 -56 0
63 56 0
-64 -57 0
64 57 0
-65 -60 0
65 60 0
-66 -59 0
66 59 0
-67 -61 0
67 61 0
66 -68 0
53 -68 0
-66 -53 68 0
62 -69 0
55 -69 0
-62 -55 69 0
51 -70 0
64 -70 0
-51 -64 70 0
65 -71 0
50 -71 0
-65 -50 71 0
67 -72 0
52 -72 0
-67 -52 72 0
63 -73 0
54 -73 0
-63 -54 73 0
20 -74 0
73 -74 0
-20 -73 74 0
-75 -69 0
75 69 0
-76 -68 0
76 68 0
-77 -70 0
77 70 0
4 -78 0
71 -78 0
-4 -71 78 0
-79 -71 0
79 71 0
-80 -72 0
80 72 0
-81 -73 0
81 73 0
3 -82 0
79 -82 0
-3 -79 82 0
-83 -78 0
83 78 0
81 -84 0
19 -84 0
-81 -19 84 0
-85 -74 0
85 74 0
77 -86 0
21 -86 0
-77 -21 86 0
-87 -82 0
87 82 0
-88 -84 0
88 84 0
85 -89 0
88 -89 0
-85 -88 89 0
83 -90 0
87 -90 0
-83 -87 90 0
90 -91 0
84 -91 0
-90 -84 91 0
90 -92 0
86 -92 0
-90 -86 92 0
-93 -91 0
93 91 0
89 -94 0
92 -94 0
-89 -92 94 0
-95 -94 0
95 94 0
87 -96 0
93 -96 0
-87 -93 96 0
96 -97 0
95 -97 0
-96 -95 97 0
-98 -97 0
98 97 0
97 -99 0
81 -99 0
-97 -81 99 0
97 -100 0
22 -100 0
-97 -22 100 0
97 -101 0
77 -101 0
-97 -77 101 0
97 -102 0
4 -102 0
-97 -4 102 0
97 -103 0
79 -103 0
-97 -79 103 0
20 -104 0
97 -104 0
-20 -97 104 0
-105 -103 0
105 103 0
20 -106 0
98 -106 0
-20 -98 106 0
98 -107 0
79 -107 0
-98 -79 107 0
-108 -100 0
108 100 0
81 -109 0
98 -109 0
-81 -98 109 0
98 -110 0
77 -110 0
-98 -77 110 0
98 -111 0
4 -111 0
-98 -4 111 0
-112 -104 0
112 104 0
-113 -99 0
113 99 0
-114 -102 0
114 102 0
-115 -101 0
115 101 0
98 -116 0
22 -116 0
-98 -22 116 0
-117 -107 0
117 107 0
-118 -111 0
118 111 0
-119 -110 0
119 110 0
-120 -109 0
120 109 0
-121 -116 0
121 116 0
-122 -106 0
122 106 0
105 -123 0
118 -123 0
-105 -118 123 0
120 -124 0
112 -124 0
-120 -112 124 0
119 -125 0
108 -125 0
-119 -108 125 0
122 -126 0
113 -126 0
-122 -113 126 0
117 -127 0
114 -127 0
-117 -114 127 0
121 -128 0
115 -128 0
-121 -115 128 0
-129 -127 0
129 127 0
-130 -126 0
130 126 0
-131 -124 0
131 124 0
126 -132 0
80 -132 0
-126 -80 132 0
124 -133 0
16 -133 0
-124 -16 133 0
-134 -128 0
134 128 0
-135 -123 0
135 123 0
-136 -125 0
136 125 0
76 -137 0
128 -137 0
-76 -128 137 0
123 -138 0
75 -138 0
-123 -75 138 0
14 -139 0
127 -139 0
-14 -127 139 0
13 -140 0
129 -140 0
-13 -129 140 0
-141 -138 0
141 138 0
135 -142 0
69 -142 0
-135 -69 142 0
136 -143 0
17 -143 0
-136 -17 143 0
-144 -132 0
144 132 0
-145 -133 0
145 133 0
130 -146 0
72 -146 0
-130 -72 146 0
-147 -139 0
147 139 0
15 -148 0
131 -148 0
-15 -131 148 0
-149 -140 0
149 140 0
-150 -148 0
150 148 0
-151 -142 0
151 142 0
-152 -146 0
152 146 0
151 -153 0
141 -153 0
-151 -141 153 0
150 -154 0
145 -154 0
-150 -145 154 0
152 -155 0
144 -155 0
-152 -144 155 0
147 -156 0
149 -156 0
-147 -149 156 0
149 -157 0
147 -157 0
-149 -147 157 0
148 -158 0
156 -158 0
-148 -156 158 0
153 -159 0
132 -159 0
-153 -132 159 0
157 -160 0
143 -160 0
-157 -143 160 0
153 -161 0
137 -161 0
-153 -137 161 0
-162 -159 0
162 159 0
154 -163 0
160 -163 0
-154 -160 163 0
-164 -158 0
164 158 0
155 -165 0
161 -165 0
-155 -161 165 0
141 -166 0
162 -166 0
-141 -162 166 0
-167 -163 0
167 163 0
-168 -165 0
168 165 0
164 -169 0
149 -169 0
-164 -149 169 0
169 -170 0
167 -170 0
-169 -167 170 0
166 -171 0
168 -171 0
-166 -168 171 0
129 -172 0
170 -172 0
-129 -170 172 0
171 -173 0
75 -173 0
-171 -75 173 0
171 -174 0
130 -174 0
-171 -130 174 0
14 -175 0
170 -175 0
-14 -170 175 0
170 -176 0
16 -176 0
-170 -16 176 0
18 -177 0
170 -177 0
-18 -170 177 0
-178 -170 0
178 170 0
171 -179 0
134 -179 0
-171 -134 179 0
135 -180 0
171 -180 0
-135 -171 180 0
-181 -171 0
181 171 0
170 -182 0
131 -182 0
-170 -131 182 0
171 -183 0
80 -183 0
-171 -80 183 0
76 -184 0
171 -184 0
-76 -171 184 0
136 -185 0
170 -185 0
-136 -170 185 0
-186 -185 0
186 185 0
-187 -176 0
187 176 0
135 -188 0
181 -188 0
-135 -181 188 0
-189 -184 0
189 184 0
14 -190 0
178 -190 0
-14 -178 190 0
178 -191 0
131 -191 0
-178 -131 191 0
129 -192 0
178 -192 0
-129 -178 192 0
16 -193 0
178 -193 0
-16 -178 193 0
-194 -174 0
194 174 0
76 -195 0
181 -195 0
-76 -181 195 0
75 -196 0
181 -196 0
-75 -181 196 0
-197 -179 0
197 179 0
181 -198 0
80 -198 0
-181 -80 198 0
-199 -183 0
199 183 0
-200 -177 0
200 177 0
-201 -173 0
201 173 0
-202 -172 0
202 172 0
-203 -182 0
203 182 0
181 -204 0
130 -204 0
-181 -130 204 0
18 -205 0
178 -205 0
-18 -178 205 0
181 -206 0
134 -206 0
-181 -134 206 0
136 -207 0
178 -207 0
-136 -178 207 0
-208 -180 0
208 180 0
-209 -175 0
209 175 0
-210 -196 0
210 196 0
-211 -193 0
211 193 0
-212 -195 0
212 195 0
-213 -204 0
213 204 0
-214 -188 0
214 188 0
-215 -192 0
215 192 0
-216 -190 0
216 190 0
-217 -198 0
217 198 0
-218 -207 0
218 207 0
-219 -191 0
219 191 0
-220 -205 0
220 205 0
-221 -206 0
221 206 0
210 -222 0
208 -222 0
-210 -208 222 0
216 -223 0
202 -223 0
-216 -202 223 0
214 -224 0
201 -224 0
-214 -201 224 0
203 -225 0
211 -225 0
-203 -211 225 0
212 -226 0
197 -226 0
-212 -197 226 0
213 -227 0
199 -227 0
-213 -199 227 0
194 -228 0
217 -228 0
-194 -217 228 0
220 -229 0
186 -229 0
-220 -186 229 0
209 -230 0
215 -230 0
-209 -215 230 0
218 -231 0
200 -231 0
-218 -200 231 0
189 -232 0
221 -232 0
-189 -221 232 0
219 -233 0
187 -233 0
-219 -187 233 0
-234 -230 0
234 230 0
-235 -222 0
235 222 0
-236 -225 0
236 225 0
-237 -231 0
237 231 0
-238 -232 0
238 232 0
-239 -224 0
239 224 0
-240 -229 0
240 229 0
-241 -228 0
241 228 0
-242 -223 0
242 223 0
-243 -227 0
243 227 0
-244 -226 0
244 226 0
-245 -233 0
245 233 0
223 -246 0
235 -246 0
-223 -235 246 0
225 -247 0
241 -247 0
-225 -241 247 0
222 -248 0
242 -248 0
-222 -242 248 0
228 -249 0
236 -249 0
-228 -236 249 0
229 -250 0
244 -250 0
-229 -244 250 0
-251 -249 0
251 249 0
-252 -248 0
252 248 0
-253 -246 0
253 246 0
-254 -247 0
254 247 0
251 -255 0
254 -255 0
-251 -254 255 0
252 -256 0
253 -256 0
-252 -253 256 0
253 -257 0
252 -257 0
-253 -252 257 0
257 -258 0
247 -258 0
-257 -247 258 0
250 -259 0
256 -259 0
-250 -256 259 0
259 -260 0
255 -260 0
-259 -255 260 0
-261 -258 0
261 258 0
253 -262 0
261 -262 0
-253 -261 262 0
-263 -260 0
263 260 0
263 -264 0
262 -264 0
-263 -262 264 0
-265 -264 0
265 264 0
264 -266 0
240 -266 0
-264 -240 266 0
235 -267 0
264 -267 0
-235 -264 267 0
264 -268 0
241 -268 0
-264 -241 268 0
264 -269 0
244 -269 0
-264 -244 269 0
264 -270 0
236 -270 0
-264 -236 270 0
242 -271 0
264 -271 0
-242 -264 271 0
-272 -269 0
272 269 0
265 -273 0
240 -273 0
-265 -240 273 0
-274 -267 0
274 267 0
-275 -270 0
275 270 0
265 -276 0
244 -276 0
-265 -244 276 0
-277 -271 0
277 271 0
242 -278 0
265 -278 0
-242 -265 278 0
265 -279 0
236 -279 0
-265 -236 279 0
-280 -268 0
280 268 0
235 -281 0
265 -281 0
-235 -265 281 0
241 -282 0
265 -282 0
-241 -265 282 0
-283 -266 0
283 266 0
-284 -273 0
284 273 0
-285 -276 0
285 276 0
-286 -279 0
286 279 0
-287 -281 0
287 281 0
-288 -278 0
288 278 0
-289 -282 0
289 282 0
283 -290 0
285 -290 0
-283 -285 290 0
284 -291 0
272 -291 0
-284 -272 291 0
286 -292 0
280 -292 0
-286 -280 292 0
288 -293 0
274 -293 0
-288 -274 293 0
289 -294 0
275 -294 0
-289 -275 294 0
287 -295 0
277 -295 0
-287 -277 295 0
-296 -291 0
296 291 0
-297 -292 0
297 292 0
-298 -294 0
298 294 0
243 -299 0
292 -299 0
-243 -292 299 0
-300 -290 0
300 290 0
293 -301 0
239 -301 0
-293 -239 301 0
-302 -295 0
302 295 0
-303 -293 0
303 293 0
291 -304 0
238 -304 0
-291 -238 304 0
303 -305 0
224 -305 0
-303 -224 305 0
-306 -299 0
306 299 0
227 -307 0
297 -307 0
-227 -297 307 0
-308 -301 0
308 301 0
-309 -307 0
309 307 0
-310 -305 0
310 305 0
309 -311 0
306 -311 0
-309 -306 311 0
310 -312 0
308 -312 0
-310 -308 312 0
312 -313 0
304 -313 0
-312 -304 313 0
312 -314 0
299 -314 0
-312 -299 314 0
311 -315 0
313 -315 0
-311 -313 315 0
-316 -314 0
316 314 0
308 -317 0
316 -317 0
-308 -316 317 0
-318 -315 0
318 315 0
317 -319 0
318 -319 0
-317 -318 319 0
319 -320 0
296 -320 0
-319 -296 320 0
319 -321 0
239 -321 0
-319 -239 321 0
319 -322 0
243 -322 0
-319 -243 322 0
-323 -319 0
323 319 0
319 -324 0
303 -324 0
-319 -303 324 0
319 -325 0
238 -325 0
-319 -238 325 0
319 -326 0
297 -326 0
-319 -297 326 0
-327 -320 0
327 320 0
-328 -322 0
328 322 0
323 -329 0
303 -329 0
-323 -303 329 0
323 -330 0
238 -330 0
-323 -238 330 0
323 -331 0
297 -331 0
-323 -297 331 0
296 -332 0
323 -332 0
-296 -323 332 0
-333 -326 0
333 326 0
-334 -321 0
334 321 0
-335 -324 0
335 324 0
-336 -325 0
336 325 0
243 -337 0
323 -337 0
-243 -323 337 0
323 -338 0
239 -338 0
-323 -239 338 0
-339 -332 0
339 332 0
-340 -331 0
340 331 0
-341 -329 0
341 329 0
-342 -338 0
342 338 0
-343 -337 0
343 337 0
-344 -330 0
344 330 0
343 -345 0
333 -345 0
-343 -333 345 0
344 -346 0
327 -346 0
-344 -327 346 0
340 -347 0
328 -347 0
-340 -328 347 0
339 -348 0
336 -348 0
-339 -336 348 0
342 -349 0
335 -349 0
-342 -335 349 0
334 -350 0
341 -350 0
-334 -341 350 0
-351 -349 0
351 349 0
-352 -345 0
352 345 0
-353 -350 0
353 350 0
-354 -347 0
354 347 0
-355 -348 0
355 348 0
-356 -346 0
356 346 0
-357 -358 0
357 358 0
-359 -360 0
359 360 0
-361 -362 0
361 362 0
-363 -364 0
363 364 0
-365 -366 0
365 366 0
-367 -368 0
367 368 0
-369 -370 0
369 370 0
-371 -372 0
371 372 0
-373 -374 0
373 374 0
-375 -376 0
375 376 0
-377 -378 0
377 378 0
-379 -380 0
379 380 0
367 -381 0
372 -381 0
-367 -372 381 0
369 -382 0
360 -382 0
-369 -360 382 0
376 -383 0
375 -383 0
-376 -375 383 0
375 -384 0
372 -384 0
-375 -372 384 0
370 -385 0
365 -385 0
-370 -365 385 0
369 -386 0
364 -386 0
-369 -364 386 0
375 -387 0
368 -387 0
-375 -368 387 0
359 -388 0
366 -388 0
-359 -366 388 0
373 -389 0
380 -389 0
-373 -380 389 0
377 -390 0
374 -390 0
-377 -374 390 0
374 -391 0
373 -391 0
-374 -373 391 0
377 -392 0
380 -392 0
-377 -380 392 0
360 -393 0
363 -393 0
-360 -363 393 0
374 -394 0
379 -394 0
-374 -379 394 0
376 -395 0
367 -395 0
-376 -367 395 0
363 -396 0
366 -396 0
-363 -366 396 0
362 -397 0
361 -397 0
-362 -361 397 0
369 -398 0
366 -398 0
-369 -366 398 0
362 -399 0
377 -399 0
-362 -377 399 0
370 -400 0
359 -400 0
-370 -359 400 0
364 -401 0
365 -401 0
-364 -365 401 0
367 -402 0
358 -402 0
-367 -358 402 0
361 -403 0
374 -403 0
-361 -374 403 0
357 -404 0
372 -404 0
-357 -372 404 0
376 -405 0
371 -405 0
-376 -371 405 0
361 -406 0
380 -406 0
-361 -380 406 0
375 -407 0
358 -407 0
-375 -358 407 0
368 -408 0
367 -408 0
-368 -367 408 0
358 -409 0
371 -409 0
-358 -371 409 0
360 -410 0
365 -410 0
-360 -365 410 0
376 -411 0
357 -411 0
-376 -357 411 0
380 -412 0
379 -412 0
-380 -379 412 0
370 -413 0
363 -413 0
-370 -363 413 0
368 -414 0
371 -414 0
-368 -371 414 0
359 -415 0
364 -415 0
-359 -364 415 0
360 -416 0
359 -416 0
-360 -359 416 0
372 -417 0
371 -417 0
-372 -371 417 0
368 -418 0
357 -418 0
-368 -357 418 0
370 -419 0
369 -419 0
-370 -369 419 0
364 -420 0
363 -420 0
-364 -363 420 0
-421 -420 0
421 420 0
-422 -383 0
422 383 0
-423 -396 0
423 396 0
-424 -405 0
424 405 0
-425 -400 0
425 400 0
-426 -414 0
426 414 0
-427 -416 0
427 416 0
-428 -402 0
428 402 0
-429 -385 0
429 385 0
-430 -410 0
430 410 0
-431 -401 0
431 401 0
-432 -417 0
432 417 0
-433 -419 0
433 419 0
-434 -409 0
434 409 0
-435 -387 0
435 387 0
-436 -381 0
436 381 0
-437 -408 0
437 408 0
-438 -395 0
438 395 0
-439 -404 0
439 404 0
-440 -415 0
440 415 0
-441 -386 0
441 386 0
-442 -384 0
442 384 0
-443 -413 0
443 413 0
-444 -393 0
444 393 0
-445 -407 0
445 407 0
-446 -382 0
446 382 0
-447 -418 0
447 418 0
-448 -411 0
448 411 0
-449 -398 0
449 398 0
-450 -388 0
450 388 0
421 -451 0
421 -451 0
-421 -421 451 0
434 -452 0
439 -452 0
-434 -439 452 0
443 -453 0
441 -453 0
-443 -441 453 0
445 -454 0
448 -454 0
-445 -448 454 0
433 -455 0
433 -455 0
-433 -433 455 0
428 -456 0
447 -456 0
-428 -447 456 0
422 -457 0
422 -457 0
-422 -422 457 0
441 -458 0
443 -458 0
-441 -443 458 0
424 -459 0
442 -459 0
-424 -442 459 0
449 -460 0
429 -460 0
-449 -429 460 0
450 -461 0
430 -461 0
-450 -430 461 0
431 -462 0
423 -462 0
-431 -423 462 0
437 -463 0
437 -463 0
-437 -437 463 0
427 -464 0
427 -464 0
-427 -427 464 0
440 -465 0
444 -465 0
-440 -444 465 0
446 -466 0
425 -466 0
-446 -425 466 0
425 -467 0
446 -467 0
-425 -446 467 0
435 -468 0
438 -468 0
-435 -438 468 0
442 -469 0
424 -469 0
-442 -424 469 0
432 -470 0
432 -470 0
-432 -432 470 0
436 -471 0
426 -471 0
-436 -426 471 0
423 -472 0
431 -472 0
-423 -431 472 0
451 -473 0
408 -473 0
-451 -408 473 0
461 -474 0
392 -474 0
-461 -392 474 0
461 -475 0
411 -475 0
-461 -411 475 0
381 -476 0
458 -476 0
-381 -458 476 0
467 -477 0
405 -477 0
-467 -405 477 0
466 -478 0
384 -478 0
-466 -384 478 0
467 -479 0
389 -479 0
-467 -389 479 0
465 -480 0
395 -480 0
-465 -395 480 0
399 -481 0
472 -481 0
-399 -472 481 0
455 -482 0
417 -482 0
-455 -417 482 0
453 -483 0
403 -483 0
-453 -403 483 0
465 -484 0
406 -484 0
-465 -406 484 0
466 -485 0
394 -485 0
-466 -394 485 0
460 -486 0
404 -486 0
-460 -404 486 0
391 -487 0
455 -487 0
-391 -455 487 0
462 -488 0
418 -488 0
-462 -418 488 0
451 -489 0
397 -489 0
-451 -397 489 0
460 -490 0
390 -490 0
-460 -390 490 0
464 -491 0
383 -491 0
-464 -383 491 0
464 -492 0
412 -492 0
-464 -412 492 0
471 -493 0
483 -493 0
-471 -483 493 0
-494 -478 0
494 478 0
468 -495 0
484 -495 0
-468 -484 495 0
481 -496 0
456 -496 0
-481 -456 496 0
452 -497 0
490 -497 0
-452 -490 497 0
-498 -486 0
498 486 0
-499 -482 0
499 482 0
-500 -480 0
500 480 0
463 -501 0
489 -501 0
-463 -489 501 0
-502 -477 0
502 477 0
-503 -488 0
503 488 0
469 -504 0
479 -504 0
-469 -479 504 0
-505 -491 0
505 491 0
-506 -473 0
506 473 0
457 -507 0
492 -507 0
-457 -492 507 0
454 -508 0
474 -508 0
-454 -474 508 0
487 -509 0
470 -509 0
-487 -470 509 0
-510 -475 0
510 475 0
459 -511 0
485 -511 0
-459 -485 511 0
-512 -476 0
512 476 0
425 -513 0
494 -513 0
-425 -494 513 0
431 -514 0
503 -514 0
-431 -503 514 0
-515 -507 0
515 507 0
429 -516 0
498 -516 0
-429 -498 516 0
-517 -509 0
517 509 0
-518 -504 0
518 504 0
433 -519 0
499 -519 0
-433 -499 519 0
-520 -508 0
520 508 0
427 -521 0
505 -521 0
-427 -505 521 0
-522 -501 0
522 501 0
444 -523 0
500 -523 0
-444 -500 523 0
-524 -497 0
524 497 0
512 -525 0
443 -525 0
-512 -443 525 0
446 -526 0
502 -526 0
-446 -502 526 0
421 -527 0
506 -527 0
-421 -506 527 0
-528 -495 0
528 495 0
-529 -496 0
529 496 0
-530 -493 0
530 493 0
430 -531 0
510 -531 0
-430 -510 531 0
-532 -511 0
532 511 0
521 -533 0
515 -533 0
-521 -515 533 0
513 -534 0
532 -534 0
-513 -532 534 0
531 -535 0
520 -535 0
-531 -520 535 0
527 -536 0
522 -536 0
-527 -522 536 0
525 -537 0
530 -537 0
-525 -530 537 0
517 -538 0
519 -538 0
-517 -519 538 0
526 -539 0
518 -539 0
-526 -518 539 0
516 -540 0
524 -540 0
-516 -524 540 0
529 -541 0
514 -541 0
-529 -514 541 0
523 -542 0
528 -542 0
-523 -528 542 0
-543 -541 0
543 541 0
-544 -535 0
544 535 0
-545 -542 0
545 542 0
-546 -539 0
546 539 0
-547 -534 0
547 534 0
-548 -538 0
548 538 0
-549 -540 0
549 540 0
-550 -536 0
550 536 0
-551 -533 0
551 533 0
-552 -537 0
552 537 0
543 -553 0
550 -553 0
-543 -550 553 0
-554 -553 0
554 553 0
543 -555 0
554 -555 0
-543 -554 555 0
-556 -555 0
556 555 0
556 -557 0
554 -557 0
-556 -554 557 0
-558 -557 0
558 557 0
557 -559 0
544 -559 0
-557 -544 559 0
-560 -559 0
560 559 0
558 -561 0
560 -561 0
-558 -560 561 0
561 -562 0
560 -562 0
-561 -560 562 0
562 -563 0
545 -563 0
-562 -545 563 0
-564 -563 0
564 563 0
561 -565 0
564 -565 0
-561 -564 565 0
559 -566 0
564 -566 0
-559 -564 566 0
-567 -565 0
567 565 0
-568 -566 0
568 566 0
568 -569 0
564 -569 0
-568 -564 569 0
-570 -569 0
570 569 0
567 -571 0
570 -571 0
-567 -570 571 0
551 -572 0
571 -572 0
-551 -571 572 0
-573 -572 0
573 572 0
573 -574 0
570 -574 0
-573 -570 574 0
565 -575 0
573 -575 0
-565 -573 575 0
-576 -574 0
576 574 0
573 -577 0
576 -577 0
-573 -576 577 0
-578 -577 0
578 577 0
578 -579 0
575 -579 0
-578 -575 579 0
579 -580 0
546 -580 0
-579 -546 580 0
-581 -580 0
581 580 0
575 -582 0
581 -582 0
-575 -581 582 0
578 -583 0
581 -583 0
-578 -581 583 0
-584 -582 0
584 582 0
-585 -583 0
585 583 0
585 -586 0
581 -586 0
-585 -581 586 0
584 -587 0
586 -587 0
-584 -586 587 0
-588 -586 0
588 586 0
549 -589 0
587 -589 0
-549 -587 589 0
-590 -589 0
590 589 0
590 -591 0
588 -591 0
-590 -588 591 0
582 -592 0
590 -592 0
-582 -590 592 0
-593 -592 0
593 592 0
-594 -591 0
594 591 0
590 -595 0
593 -595 0
-590 -593 595 0
594 -596 0
590 -596 0
-594 -590 596 0
-597 -595 0
597 595 0
-598 -596 0
598 596 0
596 -599 0
597 -599 0
-596 -597 599 0
599 -600 0
552 -600 0
-599 -552 600 0
-601 -600 0
601 600 0
601 -602 0
597 -602 0
-601 -597 602 0
601 -603 0
598 -603 0
-601 -598 603 0
-604 -602 0
604 602 0
-605 -603 0
605 603 0
601 -606 0
604 -606 0
-601 -604 606 0
601 -607 0
605 -607 0
-601 -605 607 0
-608 -607 0
608 607 0
-609 -606 0
609 606 0
608 -610 0
606 -610 0
-608 -606 610 0
610 -611 0
547 -611 0
-610 -547 611 0
-612 -611 0
612 611 0
609 -613 0
612 -613 0
-609 -612 613 0
608 -614 0
612 -614 0
-608 -612 614 0
-615 -613 0
615 613 0
-616 -614 0
616 614 0
616 -617 0
612 -617 0
-616 -612 617 0
615 -618 0
612 -618 0
-615 -612 618 0
-619 -618 0
619 618 0
-620 -617 0
620 617 0
619 -621 0
620 -621 0
-619 -620 621 0
621 -622 0
548 -622 0
-621 -548 622 0
-623 -622 0
623 622 0
619 -624 0
623 -624 0
-619 -623 624 0
623 -625 0
620 -625 0
-623 -620 625 0
-626 -624 0
626 624 0
-627 -625 0
627 625 0
623 -628 0
626 -628 0
-623 -626 628 0
627 -629 0
623 -629 0
-627 -623 629 0
-630 -628 0
630 628 0
-631 -629 0
631 629 0
630 -632 0
631 -632 0
-630 -631 632 0
628 -633 0
631 -633 0
-628 -631 633 0
630 -634 0
629 -634 0
-630 -629 634 0
-635 -632 0
635 632 0
632 -636 0
372 -636 0
-632 -372 636 0
632 -637 0
374 -637 0
-632 -374 637 0
370 -638 0
632 -638 0
-370 -632 638 0
-639 -634 0
639 634 0
360 -640 0
633 -640 0
-360 -633 640 0
-641 -633 0
641 633 0
358 -642 0
634 -642 0
-358 -634 642 0
364 -643 0
634 -643 0
-364 -634 643 0
633 -644 0
380 -644 0
-633 -380 644 0
378 -645 0
634 -645 0
-378 -634 645 0
376 -646 0
633 -646 0
-376 -633 646 0
362 -647 0
634 -647 0
-362 -634 647 0
634 -648 0
366 -648 0
-634 -366 648 0
368 -649 0
634 -649 0
-368 -634 649 0
-650 -647 0
650 647 0
370 -651 0
635 -651 0
-370 -635 651 0
376 -652 0
641 -652 0
-376 -641 652 0
364 -653 0
639 -653 0
-364 -639 653 0
-654 -648 0
654 648 0
635 -655 0
372 -655 0
-635 -372 655 0
641 -656 0
380 -656 0
-641 -380 656 0
362 -657 0
639 -657 0
-362 -639 657 0
-658 -646 0
658 646 0
358 -659 0
639 -659 0
-358 -639 659 0
374 -660 0
635 -660 0
-374 -635 660 0
-661 -636 0
661 636 0
-662 -643 0
662 643 0
-663 -642 0
663 642 0
378 -664 0
639 -664 0
-378 -639 664 0
366 -665 0
639 -665 0
-366 -639 665 0
368 -666 0
639 -666 0
-368 -639 666 0
-667 -645 0
667 645 0
-668 -644 0
668 644 0
-669 -649 0
669 649 0
-670 -638 0
670 638 0
-671 -640 0
671 640 0
360 -672 0
641 -672 0
-360 -641 672 0
-673 -637 0
673 637 0
-674 -653 0
674 653 0
-675 -655 0
675 655 0
-676 -651 0
676 651 0
-677 -656 0
677 656 0
-678 -659 0
678 659 0
-679 -660 0
679 660 0
-680 -652 0
680 652 0
-681 -666 0
681 666 0
-682 -672 0
682 672 0
-683 -657 0
683 657 0
-684 -664 0
684 664 0
-685 -665 0
685 665 0
667 -686 0
683 -686 0
-667 -683 686 0
650 -687 0
684 -687 0
-650 -684 687 0
674 -688 0
654 -688 0
-674 -654 688 0
678 -689 0
669 -689 0
-678 -669 689 0
662 -690 0
685 -690 0
-662 -685 690 0
663 -691 0
681 -691 0
-663 -681 691 0
-692 -689 0
692 689 0
-693 -686 0
693 686 0
-694 -688 0
694 688 0
-695 -690 0
695 690 0
-696 -691 0
696 691 0
-697 -687 0
697 687 0
694 -698 0
641 -698 0
-694 -641 698 0
641 -699 0
697 -699 0
-641 -697 699 0
696 -700 0
641 -700 0
-696 -641 700 0
695 -701 0
633 -701 0
-695 -633 701 0
692 -702 0
633 -702 0
-692 -633 702 0
633 -703 0
693 -703 0
-633 -693 703 0
695 -704 0
641 -704 0
-695 -641 704 0
694 -705 0
633 -705 0
-694 -633 705 0
641 -706 0
693 -706 0
-641 -693 706 0
633 -707 0
696 -707 0
-633 -696 707 0
692 -708 0
641 -708 0
-692 -641 708 0
633 -709 0
697 -709 0
-633 -697 709 0
-710 -706 0
710 706 0
-711 -702 0
711 702 0
-712 -698 0
712 698 0
-713 -705 0
713 705 0
-714 -699 0
714 699 0
-715 -707 0
715 707 0
-716 -708 0
716 708 0
-717 -704 0
717 704 0
-718 -701 0
718 701 0
-719 -700 0
719 700 0
-720 -703 0
720 703 0
-721 -709 0
721 709 0
712 -722 0
713 -722 0
-712 -713 722 0
714 -723 0
668 -723 0
-714 -668 723 0
658 -724 0
716 -724 0
-658 -716 724 0
671 -725 0
717 -725 0
-671 -717 725 0
715 -726 0
719 -726 0
-715 -719 726 0
718 -727 0
682 -727 0
-718 -682 727 0
680 -728 0
711 -728 0
-680 -711 728 0
721 -729 0
677 -729 0
-721 -677 729 0
720 -730 0
710 -730 0
-720 -710 730 0
-731 -727 0
731 727 0
-732 -726 0
732 726 0
-733 -723 0
733 723 0
-734 -728 0
734 728 0
-735 -724 0
735 724 0
-736 -722 0
736 722 0
-737 -725 0
737 725 0
-738 -729 0
738 729 0
-739 -730 0
739 730 0
731 -740 0
632 -740 0
-731 -632 740 0
635 -741 0
732 -741 0
-635 -732 741 0
635 -742 0
738 -742 0
-635 -738 742 0
731 -743 0
635 -743 0
-731 -635 743 0
735 -744 0
635 -744 0
-735 -635 744 0
632 -745 0
737 -745 0
-632 -737 745 0
632 -746 0
739 -746 0
-632 -739 746 0
735 -747 0
632 -747 0
-735 -632 747 0
635 -748 0
737 -748 0
-635 -737 748 0
635 -749 0
739 -749 0
-635 -739 749 0
734 -750 0
632 -750 0
-734 -632 750 0
736 -751 0
632 -751 0
-736 -632 751 0
734 -752 0
635 -752 0
-734 -635 752 0
736 -753 0
635 -753 0
-736 -635 753 0
733 -754 0
632 -754 0
-733 -632 754 0
632 -755 0
738 -755 0
-632 -738 755 0
632 -756 0
732 -756 0
-632 -732 756 0
733 -757 0
635 -757 0
-733 -635 757 0
-758 -746 0
758 746 0
-759 -750 0
759 750 0
-760 -751 0
760 751 0
-761 -754 0
761 754 0
-762 -749 0
762 749 0
-763 -752 0
763 752 0
-764 -753 0
764 753 0
-765 -742 0
765 742 0
-766 -755 0
766 755 0
-767 -757 0
767 757 0
-768 -747 0
768 747 0
-769 -740 0
769 740 0
-770 -744 0
770 744 0
-771 -743 0
771 743 0
-772 -748 0
772 748 0
-773 -756 0
773 756 0
-774 -745 0
774 745 0
-775 -741 0
775 741 0
767 -776 0
673 -776 0
-767 -673 776 0
763 -777 0
773 -777 0
-763 -773 777 0
765 -778 0
758 -778 0
-765 -758 778 0
760 -779 0
771 -779 0
-760 -771 779 0
761 -780 0
679 -780 0
-761 -679 780 0
764 -781 0
769 -781 0
-764 -769 781 0
675 -782 0
768 -782 0
-675 -768 782 0
676 -783 0
774 -783 0
-676 -774 783 0
661 -784 0
770 -784 0
-661 -770 784 0
762 -785 0
766 -785 0
-762 -766 785 0
772 -786 0
670 -786 0
-772 -670 786 0
775 -787 0
759 -787 0
-775 -759 787 0
-788 -785 0
788 785 0
-789 -777 0
789 777 0
-790 -787 0
790 787 0
-791 -778 0
791 778 0
-792 -783 0
792 783 0
-793 -782 0
793 782 0
-794 -781 0
794 781 0
-795 -786 0
795 786 0
-796 -784 0
796 784 0
-797 -780 0
797 780 0
-798 -779 0
798 779 0
-799 -776 0
799 776 0
782 -800 0
789 -800 0
-782 -789 800 0
777 -801 0
789 -801 0
-777 -789 801 0
788 -802 0
778 -802 0
-788 -778 802 0
798 -803 0
783 -803 0
-798 -783 803 0
782 -804 0
790 -804 0
-782 -790 804 0
794 -805 0
783 -805 0
-794 -783 805 0
778 -806 0
791 -806 0
-778 -791 806 0
777 -807 0
790 -807 0
-777 -790 807 0
793 -808 0
787 -808 0
-793 -787 808 0
779 -809 0
792 -809 0
-779 -792 809 0
780 -810 0
791 -810 0
-780 -791 810 0
787 -811 0
790 -811 0
-787 -790 811 0
781 -812 0
792 -812 0
-781 -792 812 0
793 -813 0
777 -813 0
-793 -777 813 0
798 -814 0
781 -814 0
-798 -781 814 0
785 -815 0
788 -815 0
-785 -788 815 0
789 -816 0
787 -816 0
-789 -787 816 0
779 -817 0
798 -817 0
-779 -798 817 0
779 -818 0
794 -818 0
-779 -794 818 0
781 -819 0
794 -819 0
-781 -794 819 0
788 -820 0
780 -820 0
-788 -780 820 0
-821 -805 0
821 805 0
-822 -811 0
822 811 0
-823 -819 0
823 819 0
-824 -817 0
824 817 0
-825 -816 0
825 816 0
-826 -807 0
826 807 0
-827 -809 0
827 809 0
-828 -804 0
828 804 0
-829 -812 0
829 812 0
-830 -814 0
830 814 0
-831 -808 0
831 808 0
-832 -813 0
832 813 0
-833 -801 0
833 801 0
-834 -818 0
834 818 0
-835 -800 0
835 800 0
-836 -803 0
836 803 0
825 -837 0
826 -837 0
-825 -826 837 0
833 -838 0
833 -838 0
-833 -833 838 0
827 -839 0
836 -839 0
-827 -836 839 0
835 -840 0
832 -840 0
-835 -832 840 0
824 -841 0
824 -841 0
-824 -824 841 0
831 -842 0
828 -842 0
-831 -828 842 0
830 -843 0
834 -843 0
-830 -834 843 0
822 -844 0
822 -844 0
-822 -822 844 0
829 -845 0
821 -845 0
-829 -821 845 0
836 -846 0
827 -846 0
-836 -827 846 0
823 -847 0
823 -847 0
-823 -823 847 0
800 -848 0
839 -848 0
-800 -839 848 0
846 -849 0
810 -849 0
-846 -810 849 0
847 -850 0
811 -850 0
-847 -811 850 0
841 -851 0
801 -851 0
-841 -801 851 0
843 -852 0
807 -852 0
-843 -807 852 0
847 -853 0
815 -853 0
-847 -815 853 0
845 -854 0
804 -854 0
-845 -804 854 0
841 -855 0
806 -855 0
-841 -806 855 0
845 -856 0
820 -856 0
-845 -820 856 0
843 -857 0
802 -857 0
-843 -802 857 0
-858 -848 0
858 848 0
-859 -852 0
859 852 0
842 -860 0
856 -860 0
-842 -856 860 0
-861 -850 0
861 850 0
838 -862 0
855 -862 0
-838 -855 862 0
-863 -854 0
863 854 0
844 -864 0
853 -864 0
-844 -853 864 0
-865 -851 0
865 851 0
840 -866 0
849 -866 0
-840 -849 866 0
837 -867 0
857 -867 0
-837 -857 867 0
-868 -860 0
868 860 0
-869 -867 0
869 867 0
858 -870 0
836 -870 0
-858 -836 870 0
834 -871 0
859 -871 0
-834 -859 871 0
-872 -864 0
872 864 0
824 -873 0
865 -873 0
-824 -865 873 0
821 -874 0
863 -874 0
-821 -863 874 0
-875 -866 0
875 866 0
823 -876 0
861 -876 0
-823 -861 876 0
-877 -862 0
877 862 0
871 -878 0
869 -878 0
-871 -869 878 0
870 -879 0
875 -879 0
-870 -875 879 0
873 -880 0
877 -880 0
-873 -877 880 0
876 -881 0
872 -881 0
-876 -872 881 0
874 -882 0
868 -882 0
-874 -868 882 0
-883 -880 0
883 880 0
-884 -881 0
884 881 0
-885 -882 0
885 882 0
-886 -879 0
886 879 0
-887 -878 0
887 878 0
883 -888 0
886 -888 0
-883 -886 888 0
-889 -888 0
889 888 0
889 -890 0
886 -890 0
-889 -886 890 0
-891 -890 0
891 890 0
889 -892 0
891 -892 0
-889 -891 892 0
-893 -892 0
893 892 0
885 -894 0
892 -894 0
-885 -892 894 0
-895 -894 0
895 894 0
895 -896 0
893 -896 0
-895 -893 896 0
895 -897 0
896 -897 0
-895 -896 897 0
887 -898 0
897 -898 0
-887 -897 898 0
-899 -898 0
899 898 0
899 -900 0
896 -900 0
-899 -896 900 0
894 -901 0
899 -901 0
-894 -899 901 0
-902 -900 0
902 900 0
-903 -901 0
903 901 0
899 -904 0
903 -904 0
-899 -903 904 0
-905 -904 0
905 904 0
905 -906 0
902 -906 0
-905 -902 906 0
906 -907 0
884 -907 0
-906 -884 907 0
-908 -907 0
908 907 0
905 -909 0
908 -909 0
-905 -908 909 0
900 -910 0
908 -910 0
-900 -908 910 0
-911 -909 0
911 909 0
-912 -910 0
912 910 0
911 -913 0
908 -913 0
-911 -908 913 0
910 -914 0
913 -914 0
-910 -913 914 0
-915 -913 0
915 913 0
914 -916 0
791 -916 0
-914 -791 916 0
797 -917 0
914 -917 0
-797 -914 917 0
912 -918 0
915 -918 0
-912 -915 918 0
914 -919 0
792 -919 0
-914 -792 919 0
789 -920 0
914 -920 0
-789 -914 920 0
-921 -914 0
921 914 0
793 -922 0
914 -922 0
-793 -914 922 0
798 -923 0
914 -923 0
-798 -914 923 0
-924 -919 0
924 919 0
-925 -923 0
925 923 0
789 -926 0
921 -926 0
-789 -921 926 0
-927 -918 0
927 918 0
-928 -917 0
928 917 0
788 -929 0
918 -929 0
-788 -918 929 0
918 -930 0
794 -930 0
-918 -794 930 0
-931 -922 0
931 922 0
792 -932 0
921 -932 0
-792 -921 932 0
-933 -916 0
933 916 0
791 -934 0
921 -934 0
-791 -921 934 0
798 -935 0
921 -935 0
-798 -921 935 0
793 -936 0
921 -936 0
-793 -921 936 0
918 -937 0
790 -937 0
-918 -790 937 0
797 -938 0
921 -938 0
-797 -921 938 0
-939 -920 0
939 920 0
927 -940 0
794 -940 0
-927 -794 940 0
-941 -926 0
941 926 0
-942 -934 0
942 934 0
-943 -930 0
943 930 0
-944 -935 0
944 935 0
927 -945 0
790 -945 0
-927 -790 945 0
-946 -938 0
946 938 0
-947 -929 0
947 929 0
-948 -936 0
948 936 0
-949 -937 0
949 937 0
788 -950 0
927 -950 0
-788 -927 950 0
-951 -932 0
951 932 0
931 -952 0
941 -952 0
-931 -941 952 0
-953 -940 0
953 940 0
928 -954 0
942 -954 0
-928 -942 954 0
948 -955 0
939 -955 0
-948 -939 955 0
944 -956 0
924 -956 0
-944 -924 956 0
925 -957 0
951 -957 0
-925 -951 957 0
-958 -945 0
958 945 0
933 -959 0
946 -959 0
-933 -946 959 0
-960 -950 0
960 950 0
-961 -955 0
961 955 0
-962 -956 0
962 956 0
-963 -952 0
963 952 0
-964 -954 0
964 954 0
-965 -957 0
965 957 0
-966 -959 0
966 959 0
962 -967 0
927 -967 0
-962 -927 967 0
961 -968 0
918 -968 0
-961 -918 968 0
918 -969 0
963 -969 0
-918 -963 969 0
927 -970 0
964 -970 0
-927 -964 970 0
927 -971 0
966 -971 0
-927 -966 971 0
962 -972 0
918 -972 0
-962 -918 972 0
965 -973 0
927 -973 0
-965 -927 973 0
918 -974 0
964 -974 0
-918 -964 974 0
961 -975 0
927 -975 0
-961 -927 975 0
927 -976 0
963 -976 0
-927 -963 976 0
918 -977 0
966 -977 0
-918 -966 977 0
965 -978 0
918 -978 0
-965 -918 978 0
-979 -977 0
979 977 0
-980 -968 0
980 968 0
-981 -971 0
981 971 0
-982 -978 0
982 978 0
-983 -975 0
983 975 0
-984 -970 0
984 970 0
-985 -974 0
985 974 0
-986 -969 0
986 969 0
-987 -976 0
987 976 0
-988 -973 0
988 973 0
-989 -972 0
989 972 0
-990 -967 0
990 967 0
987 -991 0
986 -991 0
-987 -986 991 0
979 -992 0
960 -992 0
-979 -960 992 0
953 -993 0
982 -993 0
-953 -982 993 0
989 -994 0
990 -994 0
-989 -990 994 0
988 -995 0
943 -995 0
-988 -943 995 0
958 -996 0
980 -996 0
-958 -980 996 0
981 -997 0
947 -997 0
-981 -947 997 0
984 -998 0
985 -998 0
-984 -985 998 0
949 -999 0
983 -999 0
-949 -983 999 0
-1000 -999 0
1000 999 0
-1001 -995 0
1001 995 0
-1002 -994 0
1002 994 0
-1003 -998 0
1003 998 0
-1004 -991 0
1004 991 0
-1005 -993 0
1005 993 0
-1006 -997 0
1006 997 0
-1007 -992 0
1007 992 0
-1008 -996 0
1008 996 0
1008 -1009 0
991 -1009 0
-1008 -991 1009 0
991 -1010 0
1004 -1010 0
-991 -1004 1010 0
994 -1011 0
1005 -1011 0
-994 -1005 1011 0
998 -1012 0
1003 -1012 0
-998 -1003 1012 0
994 -1013 0
1002 -1013 0
-994 -1002 1013 0
1002 -1014 0
993 -1014 0
-1002 -993 1014 0
992 -1015 0
1003 -1015 0
-992 -1003 1015 0
996 -1016 0
1004 -1016 0
-996 -1004 1016 0
-1017 -1013 0
1017 1013 0
-1018 -1011 0
1018 1011 0
-1019 -1009 0
1019 1009 0
-1020 -1010 0
1020 1010 0
-1021 -1016 0
1021 1016 0
-1022 -1014 0
1022 1014 0
1017 -1023 0
1017 -1023 0
-1017 -1017 1023 0
1018 -1024 0
1022 -1024 0
-1018 -1022 1024 0
1020 -1025 0
1020 -1025 0
-1020 -1020 1025 0
1019 -1026 0
1021 -1026 0
-1019 -1021 1026 0
1023 -1027 0
1012 -1027 0
-1023 -1012 1027 0
1024 -1028 0
1015 -1028 0
-1024 -1015 1028 0
1024 -1029 0
1016 -1029 0
-1024 -1016 1029 0
1010 -1030 0
1023 -1030 0
-1010 -1023 1030 0
-1031 -1029 0
1031 1029 0
1026 -1032 0
1028 -1032 0
-1026 -1028 1032 0
1025 -1033 0
1027 -1033 0
-1025 -1027 1033 0
-1034 -1030 0
1034 1030 0
-1035 -1032 0
1035 1032 0
1022 -1036 0
1031 -1036 0
-1022 -1031 1036 0
1034 -1037 0
1017 -1037 0
-1034 -1017 1037 0
-1038 -1033 0
1038 1033 0
1037 -1039 0
1038 -1039 0
-1037 -1038 1039 0
1036 -1040 0
1035 -1040 0
-1036 -1035 1040 0
-1041 -1039 0
1041 1039 0
-1042 -1040 0
1042 1040 0
1042 -1043 0
1041 -1043 0
-1042 -1041 1043 0
-1044 -1043 0
1044 1043 0
1044 -1045 0
1042 -1045 0
-1044 -1042 1045 0
-1046 -1045 0
1046 1045 0
1044 -1047 0
1046 -1047 0
-1044 -1046 1047 0
1008 -1048 0
1047 -1048 0
-1008 -1047 1048 0
1047 -1049 0
1005 -1049 0
-1047 -1005 1049 0
1047 -1050 0
1004 -1050 0
-1047 -1004 1050 0
1002 -1051 0
1047 -1051 0
-1002 -1047 1051 0
-1052 -1047 0
1052 1047 0
1007 -1053 0
1047 -1053 0
-1007 -1047 1053 0
1047 -1054 0
1003 -1054 0
-1047 -1003 1054 0
-1055 -1051 0
1055 1051 0
1008 -1056 0
1052 -1056 0
-1008 -1052 1056 0
1052 -1057 0
1004 -1057 0
-1052 -1004 1057 0
1002 -1058 0
1052 -1058 0
-1002 -1052 1058 0
-1059 -1054 0
1059 1054 0
-1060 -1053 0
1060 1053 0
1052 -1061 0
1003 -1061 0
-1052 -1003 1061 0
-1062 -1050 0
1062 1050 0
-1063 -1049 0
1063 1049 0
1007 -1064 0
1052 -1064 0
-1007 -1052 1064 0
1052 -1065 0
1005 -1065 0
-1052 -1005 1065 0
-1066 -1048 0
1066 1048 0
-1067 -1064 0
1067 1064 0
-1068 -1061 0
1068 1061 0
-1069 -1065 0
1069 1065 0
-1070 -1057 0
1070 1057 0
-1071 -1056 0
1071 1056 0
-1072 -1058 0
1072 1058 0
1070 -1073 0
1066 -1073 0
-1070 -1066 1073 0
1060 -1074 0
1068 -1074 0
-1060 -1068 1074 0
1062 -1075 0
1071 -1075 0
-1062 -1071 1075 0
1063 -1076 0
1072 -1076 0
-1063 -1072 1076 0
1067 -1077 0
1059 -1077 0
-1067 -1059 1077 0
1055 -1078 0
1069 -1078 0
-1055 -1069 1078 0
-1079 -1073 0
1079 1073 0
-1080 -1076 0
1080 1076 0
-1081 -1074 0
1081 1074 0
-1082 -1075 0
1082 1075 0
-1083 -1077 0
1083 1077 0
-1084 -1078 0
1084 1078 0
-28 378 0
28 -378 0
-2 358 0
2 -358 0
-10 366 0
10 -366 0
-6 362 0
6 -362 0
-12 368 0
12 -368 0
-8 364 0
8 -364 0
-22 380 0
22 -380 0
-20 376 0
20 -376 0
-4 360 0
4 -360 0
-18 374 0
18 -374 0
-16 372 0
16 -372 0
-14 370 0
14 -370 0
-237 -799 -1085 0
237 799 -1085 0
237 -799 1085 0
-237 799 1085 0
-245 -796 -1086 0
245 796 -1086 0
245 -796 1086 0
-245 796 1086 0
-234 -795 -1087 0
234 795 -1087 0
234 -795 1087 0
-234 795 1087 0
-300 -1006 -1088 0
300 1006 -1088 0
300 -1006 1088 0
-300 1006 1088 0
-298 -1000 -1089 0
298 1000 -1089 0
298 -1000 1089 0
-298 1000 1089 0
-302 -1001 -1090 0
302 1001 -1090 0
302 -1001 1090 0
-302 1001 1090 0
-355 -1083 -1091 0
355 1083 -1091 0
355 -1083 1091 0
-355 1083 1091 0
-354 -1082 -1092 0
354 1082 -1092 0
354 -1082 1092 0
-354 1082 1092 0
-353 -1084 -1093 0
353 1084 -1093 0
353 -1084 1093 0
-353 1084 1093 0
-356 -1081 -1094 0
356 1081 -1094 0
356 -1081 1094 0
-356 1081 1094 0
-352 -1079 -1095 0
352 1079 -1095 0
352 -1079 1095 0
-352 1079 1095 0
-351 -1080 -1096 0
351 1080 -1096 0
351 -1080 1096 0
-351 1080 1096 0
1085 1086 1087 1088 1089 1090 1091 1092 1093 1094 1095 1096 0
